Minimize
	x11 + x12 + x13 +
	x21 + x22 + x23 +
	x31 + x32 + x33 

Subject To
	x12 = 3
	x11 = 2

	x11 + x12 + x13 = 6
	x21 + x22 + x23 = 6
	x31 + x32 + x33 = 6

	x11 + x21 + x31 = 6
	x12 + x22 + x32 = 6
	x13 + x23 + x33 = 6

	t1 - x11 + x12 = 0
	z1 - p1 - n1 = 0
	t1 - p1 + n1 = 0
	p1 - 99y1 <= 0
	n1 + 99y1 <= 99
	z1 >= 1
	
	t2 - x11 + x13 = 0
	z2 - p2 - n2 = 0
	t2 - p2 + n2 = 0
	p2 - 99y2 <= 0
	n2 + 99y2 <= 99
	z2 >= 1
	
	t3 - x12 + x13 = 0
	z3 - p3 - n3 = 0
	t3 - p3 + n3 = 0
	p3 - 99y3 <= 0
	n3 + 99y3 <= 99
	z3 >= 1
	
	t4 - x21 + x22 = 0
	z4 - p4 - n4 = 0
	t4 - p4 + n4 = 0
	p4 - 99y4 <= 0
	n4 + 99y4 <= 99
	z4 >= 1
	
	t5 - x21 + x23 = 0
	z5 - p5 - n5 = 0
	t5 - p5 + n5 = 0
	p5 - 99y5 <= 0
	n5 + 99y5 <= 99
	z5 >= 1
	
	t6 - x22 + x23 = 0
	z6 - p6 - n6 = 0
	t6 - p6 + n6 = 0
	p6 - 99y6 <= 0
	n6 + 99y6 <= 99
	z6 >= 1
	
	t7 - x31 + x32 = 0
	z7 - p7 - n7 = 0
	t7 - p7 + n7 = 0
	p7 - 99y7 <= 0
	n7 + 99y7 <= 99
	z7 >= 1
	
	t8 - x31 + x33 = 0
	z8 - p8 - n8 = 0
	t8 - p8 + n8 = 0
	p8 - 99y8 <= 0
	n8 + 99y8 <= 99
	z8 >= 1
	
	t9 - x32 + x33 = 0
	z9 - p9 - n9 = 0
	t9 - p9 + n9 = 0
	p9 - 99y9 <= 0
	n9 + 99y9 <= 99
	z9 >= 1
	
	t10 - x11 + x21 = 0
	z10 - p10 - n10 = 0
	t10 - p10 + n10 = 0
	p10 - 99y10 <= 0
	n10 + 99y10 <= 99
	z10 >= 1
	
	t11 - x11 + x31 = 0
	z11 - p11 - n11 = 0
	t11 - p11 + n11 = 0
	p11 - 99y11 <= 0
	n11 + 99y11 <= 99
	z11 >= 1
	
	t12 - x21 + x31 = 0
	z12 - p12 - n12 = 0
	t12 - p12 + n12 = 0
	p12 - 99y12 <= 0
	n12 + 99y12 <= 99
	z12 >= 1
	
	t13 - x12 + x22 = 0
	z13 - p13 - n13 = 0
	t13 - p13 + n13 = 0
	p13 - 99y13 <= 0
	n13 + 99y13 <= 99
	z13 >= 1
	
	t14 - x12 + x32 = 0
	z14 - p14 - n14 = 0
	t14 - p14 + n14 = 0
	p14 - 99y14 <= 0
	n14 + 99y14 <= 99
	z14 >= 1
	
	t15 - x22 + x32 = 0
	z15 - p15 - n15 = 0
	t15 - p15 + n15 = 0
	p15 - 99y15 <= 0
	n15 + 99y15 <= 99
	z15 >= 1
	
	t16 - x13 - x23 = 0
	z16 - p16 - n16 = 0
	t16 - p16 + n16 = 0
	p16 - 99y16 <= 0
	n16 + 99y16 <= 99
	z16 >= 1
	
	t17 - x13 - x33 = 0
	z17 - p17 - n17 = 0
	t17 - p17 + n17 = 0
	p17 - 99y17 <= 0
	n17 + 99y17 <= 99
	z17 >= 1
	
	t18 - x23 - x33 = 0
	z18 - p18 - n18 = 0
	t18 - p18 + n18 = 0
	p18 - 99y18 <= 0
	n18 + 99y18 <= 99
	z18 >= 1

Bounds
	1 <= x11 <= 3
	1 <= x12 <= 3
	1 <= x13 <= 3
	1 <= x21 <= 3
	1 <= x22 <= 3
	1 <= x23 <= 3
	1 <= x31 <= 3
	1 <= x32 <= 3
	1 <= x33 <= 3
	-99 <= t1 <= 99
	-99 <= t2 <= 99
	-99 <= t3 <= 99
	-99 <= t4 <= 99
	-99 <= t5 <= 99
	-99 <= t6 <= 99
	-99 <= t7 <= 99
	-99 <= t8 <= 99
	-99 <= t9 <= 99
	-99 <= t10 <= 99
	-99 <= t11 <= 99
	-99 <= t12 <= 99
	-99 <= t13 <= 99
	-99 <= t14 <= 99
	-99 <= t15 <= 99
	-99 <= t16 <= 99
	-99 <= t17 <= 99
	-99 <= t18 <= 99

Binary
	y1
	y2
	y3
	y4
	y5
	y6
	y7
	y8
	y9
	y10
	y11
	y12
	y13
	y14
	y15
	y16
	y17
	y18

General
	x11
	x12
	x13
	x21
	x22
	x23
	x31
	x32
	x33

End